n_nodes = 20;
edges = [
	{2, 3, 4, 5, 6, 17},
	{3, 4, 5, 6},
	{16, 4, 5, 6},
	{16, 19, 5, 6},
	{9, 20, 6, 17},
	{ },
	{8, 9, 10, 11},
	{9, 10, 11},
	{10, 11},
	{11},
	{ },
	{13, 14, 15, 16, 17, 18, 19, 20},
	{14, 15, 16, 17, 18, 19, 20},
	{15, 16, 17, 18, 19, 20},
	{16, 17, 18, 19, 20},
	{17, 18, 19, 20},
	{18, 19, 20},
	{19, 20},
	{20},
	{ }
];